c description: Graph pigeonhole principle formula on fast_gnp_random_graph(20,10,0.9)
c generator: CNFgen (0.9.0)
c copyright: (C) 2012-2020 Massimo Lauria <massimo.lauria@uniroma1.it>
c url: https://massimolauria.net/cnfgen
c
p cnf 185 1645
1 2 3 4 5 6 7 8 9 10 0
11 12 13 14 15 16 17 18 19 0
20 21 22 23 24 25 26 27 28 0
29 30 31 32 33 34 35 36 0
37 38 39 40 41 42 43 44 45 0
46 47 48 49 50 51 52 53 54 55 0
56 57 58 59 60 61 62 63 64 0
65 66 67 68 69 70 71 72 73 74 0
75 76 77 78 79 80 81 82 83 84 0
85 86 87 88 89 90 91 0
92 93 94 95 96 97 98 99 100 101 0
102 103 104 105 106 107 108 109 110 111 0
112 113 114 115 116 117 118 119 120 121 0
122 123 124 125 126 127 128 129 130 0
131 132 133 134 135 136 137 138 139 0
140 141 142 143 144 145 146 147 148 0
149 150 151 152 153 154 155 156 157 0
158 159 160 161 162 163 164 165 166 167 0
168 169 170 171 172 173 174 175 176 0
177 178 179 180 181 182 183 184 185 0
-1 -11 0
-1 -20 0
-1 -29 0
-1 -37 0
-1 -46 0
-1 -56 0
-1 -65 0
-1 -75 0
-1 -85 0
-1 -92 0
-1 -102 0
-1 -112 0
-1 -131 0
-1 -140 0
-1 -149 0
-1 -158 0
-1 -168 0
-1 -177 0
-11 -20 0
-11 -29 0
-11 -37 0
-11 -46 0
-11 -56 0
-11 -65 0
-11 -75 0
-11 -85 0
-11 -92 0
-11 -102 0
-11 -112 0
-11 -131 0
-11 -140 0
-11 -149 0
-11 -158 0
-11 -168 0
-11 -177 0
-20 -29 0
-20 -37 0
-20 -46 0
-20 -56 0
-20 -65 0
-20 -75 0
-20 -85 0
-20 -92 0
-20 -102 0
-20 -112 0
-20 -131 0
-20 -140 0
-20 -149 0
-20 -158 0
-20 -168 0
-20 -177 0
-29 -37 0
-29 -46 0
-29 -56 0
-29 -65 0
-29 -75 0
-29 -85 0
-29 -92 0
-29 -102 0
-29 -112 0
-29 -131 0
-29 -140 0
-29 -149 0
-29 -158 0
-29 -168 0
-29 -177 0
-37 -46 0
-37 -56 0
-37 -65 0
-37 -75 0
-37 -85 0
-37 -92 0
-37 -102 0
-37 -112 0
-37 -131 0
-37 -140 0
-37 -149 0
-37 -158 0
-37 -168 0
-37 -177 0
-46 -56 0
-46 -65 0
-46 -75 0
-46 -85 0
-46 -92 0
-46 -102 0
-46 -112 0
-46 -131 0
-46 -140 0
-46 -149 0
-46 -158 0
-46 -168 0
-46 -177 0
-56 -65 0
-56 -75 0
-56 -85 0
-56 -92 0
-56 -102 0
-56 -112 0
-56 -131 0
-56 -140 0
-56 -149 0
-56 -158 0
-56 -168 0
-56 -177 0
-65 -75 0
-65 -85 0
-65 -92 0
-65 -102 0
-65 -112 0
-65 -131 0
-65 -140 0
-65 -149 0
-65 -158 0
-65 -168 0
-65 -177 0
-75 -85 0
-75 -92 0
-75 -102 0
-75 -112 0
-75 -131 0
-75 -140 0
-75 -149 0
-75 -158 0
-75 -168 0
-75 -177 0
-85 -92 0
-85 -102 0
-85 -112 0
-85 -131 0
-85 -140 0
-85 -149 0
-85 -158 0
-85 -168 0
-85 -177 0
-92 -102 0
-92 -112 0
-92 -131 0
-92 -140 0
-92 -149 0
-92 -158 0
-92 -168 0
-92 -177 0
-102 -112 0
-102 -131 0
-102 -140 0
-102 -149 0
-102 -158 0
-102 -168 0
-102 -177 0
-112 -131 0
-112 -140 0
-112 -149 0
-112 -158 0
-112 -168 0
-112 -177 0
-131 -140 0
-131 -149 0
-131 -158 0
-131 -168 0
-131 -177 0
-140 -149 0
-140 -158 0
-140 -168 0
-140 -177 0
-149 -158 0
-149 -168 0
-149 -177 0
-158 -168 0
-158 -177 0
-168 -177 0
-2 -12 0
-2 -21 0
-2 -30 0
-2 -38 0
-2 -47 0
-2 -57 0
-2 -66 0
-2 -76 0
-2 -86 0
-2 -93 0
-2 -103 0
-2 -113 0
-2 -122 0
-2 -132 0
-2 -141 0
-2 -150 0
-2 -159 0
-2 -169 0
-2 -178 0
-12 -21 0
-12 -30 0
-12 -38 0
-12 -47 0
-12 -57 0
-12 -66 0
-12 -76 0
-12 -86 0
-12 -93 0
-12 -103 0
-12 -113 0
-12 -122 0
-12 -132 0
-12 -141 0
-12 -150 0
-12 -159 0
-12 -169 0
-12 -178 0
-21 -30 0
-21 -38 0
-21 -47 0
-21 -57 0
-21 -66 0
-21 -76 0
-21 -86 0
-21 -93 0
-21 -103 0
-21 -113 0
-21 -122 0
-21 -132 0
-21 -141 0
-21 -150 0
-21 -159 0
-21 -169 0
-21 -178 0
-30 -38 0
-30 -47 0
-30 -57 0
-30 -66 0
-30 -76 0
-30 -86 0
-30 -93 0
-30 -103 0
-30 -113 0
-30 -122 0
-30 -132 0
-30 -141 0
-30 -150 0
-30 -159 0
-30 -169 0
-30 -178 0
-38 -47 0
-38 -57 0
-38 -66 0
-38 -76 0
-38 -86 0
-38 -93 0
-38 -103 0
-38 -113 0
-38 -122 0
-38 -132 0
-38 -141 0
-38 -150 0
-38 -159 0
-38 -169 0
-38 -178 0
-47 -57 0
-47 -66 0
-47 -76 0
-47 -86 0
-47 -93 0
-47 -103 0
-47 -113 0
-47 -122 0
-47 -132 0
-47 -141 0
-47 -150 0
-47 -159 0
-47 -169 0
-47 -178 0
-57 -66 0
-57 -76 0
-57 -86 0
-57 -93 0
-57 -103 0
-57 -113 0
-57 -122 0
-57 -132 0
-57 -141 0
-57 -150 0
-57 -159 0
-57 -169 0
-57 -178 0
-66 -76 0
-66 -86 0
-66 -93 0
-66 -103 0
-66 -113 0
-66 -122 0
-66 -132 0
-66 -141 0
-66 -150 0
-66 -159 0
-66 -169 0
-66 -178 0
-76 -86 0
-76 -93 0
-76 -103 0
-76 -113 0
-76 -122 0
-76 -132 0
-76 -141 0
-76 -150 0
-76 -159 0
-76 -169 0
-76 -178 0
-86 -93 0
-86 -103 0
-86 -113 0
-86 -122 0
-86 -132 0
-86 -141 0
-86 -150 0
-86 -159 0
-86 -169 0
-86 -178 0
-93 -103 0
-93 -113 0
-93 -122 0
-93 -132 0
-93 -141 0
-93 -150 0
-93 -159 0
-93 -169 0
-93 -178 0
-103 -113 0
-103 -122 0
-103 -132 0
-103 -141 0
-103 -150 0
-103 -159 0
-103 -169 0
-103 -178 0
-113 -122 0
-113 -132 0
-113 -141 0
-113 -150 0
-113 -159 0
-113 -169 0
-113 -178 0
-122 -132 0
-122 -141 0
-122 -150 0
-122 -159 0
-122 -169 0
-122 -178 0
-132 -141 0
-132 -150 0
-132 -159 0
-132 -169 0
-132 -178 0
-141 -150 0
-141 -159 0
-141 -169 0
-141 -178 0
-150 -159 0
-150 -169 0
-150 -178 0
-159 -169 0
-159 -178 0
-169 -178 0
-3 -13 0
-3 -22 0
-3 -31 0
-3 -39 0
-3 -48 0
-3 -58 0
-3 -67 0
-3 -77 0
-3 -87 0
-3 -94 0
-3 -104 0
-3 -114 0
-3 -123 0
-3 -142 0
-3 -151 0
-3 -160 0
-3 -170 0
-3 -179 0
-13 -22 0
-13 -31 0
-13 -39 0
-13 -48 0
-13 -58 0
-13 -67 0
-13 -77 0
-13 -87 0
-13 -94 0
-13 -104 0
-13 -114 0
-13 -123 0
-13 -142 0
-13 -151 0
-13 -160 0
-13 -170 0
-13 -179 0
-22 -31 0
-22 -39 0
-22 -48 0
-22 -58 0
-22 -67 0
-22 -77 0
-22 -87 0
-22 -94 0
-22 -104 0
-22 -114 0
-22 -123 0
-22 -142 0
-22 -151 0
-22 -160 0
-22 -170 0
-22 -179 0
-31 -39 0
-31 -48 0
-31 -58 0
-31 -67 0
-31 -77 0
-31 -87 0
-31 -94 0
-31 -104 0
-31 -114 0
-31 -123 0
-31 -142 0
-31 -151 0
-31 -160 0
-31 -170 0
-31 -179 0
-39 -48 0
-39 -58 0
-39 -67 0
-39 -77 0
-39 -87 0
-39 -94 0
-39 -104 0
-39 -114 0
-39 -123 0
-39 -142 0
-39 -151 0
-39 -160 0
-39 -170 0
-39 -179 0
-48 -58 0
-48 -67 0
-48 -77 0
-48 -87 0
-48 -94 0
-48 -104 0
-48 -114 0
-48 -123 0
-48 -142 0
-48 -151 0
-48 -160 0
-48 -170 0
-48 -179 0
-58 -67 0
-58 -77 0
-58 -87 0
-58 -94 0
-58 -104 0
-58 -114 0
-58 -123 0
-58 -142 0
-58 -151 0
-58 -160 0
-58 -170 0
-58 -179 0
-67 -77 0
-67 -87 0
-67 -94 0
-67 -104 0
-67 -114 0
-67 -123 0
-67 -142 0
-67 -151 0
-67 -160 0
-67 -170 0
-67 -179 0
-77 -87 0
-77 -94 0
-77 -104 0
-77 -114 0
-77 -123 0
-77 -142 0
-77 -151 0
-77 -160 0
-77 -170 0
-77 -179 0
-87 -94 0
-87 -104 0
-87 -114 0
-87 -123 0
-87 -142 0
-87 -151 0
-87 -160 0
-87 -170 0
-87 -179 0
-94 -104 0
-94 -114 0
-94 -123 0
-94 -142 0
-94 -151 0
-94 -160 0
-94 -170 0
-94 -179 0
-104 -114 0
-104 -123 0
-104 -142 0
-104 -151 0
-104 -160 0
-104 -170 0
-104 -179 0
-114 -123 0
-114 -142 0
-114 -151 0
-114 -160 0
-114 -170 0
-114 -179 0
-123 -142 0
-123 -151 0
-123 -160 0
-123 -170 0
-123 -179 0
-142 -151 0
-142 -160 0
-142 -170 0
-142 -179 0
-151 -160 0
-151 -170 0
-151 -179 0
-160 -170 0
-160 -179 0
-170 -179 0
-4 -14 0
-4 -23 0
-4 -32 0
-4 -40 0
-4 -49 0
-4 -59 0
-4 -68 0
-4 -78 0
-4 -88 0
-4 -95 0
-4 -105 0
-4 -115 0
-4 -124 0
-4 -133 0
-4 -152 0
-4 -161 0
-4 -171 0
-4 -180 0
-14 -23 0
-14 -32 0
-14 -40 0
-14 -49 0
-14 -59 0
-14 -68 0
-14 -78 0
-14 -88 0
-14 -95 0
-14 -105 0
-14 -115 0
-14 -124 0
-14 -133 0
-14 -152 0
-14 -161 0
-14 -171 0
-14 -180 0
-23 -32 0
-23 -40 0
-23 -49 0
-23 -59 0
-23 -68 0
-23 -78 0
-23 -88 0
-23 -95 0
-23 -105 0
-23 -115 0
-23 -124 0
-23 -133 0
-23 -152 0
-23 -161 0
-23 -171 0
-23 -180 0
-32 -40 0
-32 -49 0
-32 -59 0
-32 -68 0
-32 -78 0
-32 -88 0
-32 -95 0
-32 -105 0
-32 -115 0
-32 -124 0
-32 -133 0
-32 -152 0
-32 -161 0
-32 -171 0
-32 -180 0
-40 -49 0
-40 -59 0
-40 -68 0
-40 -78 0
-40 -88 0
-40 -95 0
-40 -105 0
-40 -115 0
-40 -124 0
-40 -133 0
-40 -152 0
-40 -161 0
-40 -171 0
-40 -180 0
-49 -59 0
-49 -68 0
-49 -78 0
-49 -88 0
-49 -95 0
-49 -105 0
-49 -115 0
-49 -124 0
-49 -133 0
-49 -152 0
-49 -161 0
-49 -171 0
-49 -180 0
-59 -68 0
-59 -78 0
-59 -88 0
-59 -95 0
-59 -105 0
-59 -115 0
-59 -124 0
-59 -133 0
-59 -152 0
-59 -161 0
-59 -171 0
-59 -180 0
-68 -78 0
-68 -88 0
-68 -95 0
-68 -105 0
-68 -115 0
-68 -124 0
-68 -133 0
-68 -152 0
-68 -161 0
-68 -171 0
-68 -180 0
-78 -88 0
-78 -95 0
-78 -105 0
-78 -115 0
-78 -124 0
-78 -133 0
-78 -152 0
-78 -161 0
-78 -171 0
-78 -180 0
-88 -95 0
-88 -105 0
-88 -115 0
-88 -124 0
-88 -133 0
-88 -152 0
-88 -161 0
-88 -171 0
-88 -180 0
-95 -105 0
-95 -115 0
-95 -124 0
-95 -133 0
-95 -152 0
-95 -161 0
-95 -171 0
-95 -180 0
-105 -115 0
-105 -124 0
-105 -133 0
-105 -152 0
-105 -161 0
-105 -171 0
-105 -180 0
-115 -124 0
-115 -133 0
-115 -152 0
-115 -161 0
-115 -171 0
-115 -180 0
-124 -133 0
-124 -152 0
-124 -161 0
-124 -171 0
-124 -180 0
-133 -152 0
-133 -161 0
-133 -171 0
-133 -180 0
-152 -161 0
-152 -171 0
-152 -180 0
-161 -171 0
-161 -180 0
-171 -180 0
-5 -15 0
-5 -24 0
-5 -33 0
-5 -41 0
-5 -50 0
-5 -69 0
-5 -79 0
-5 -96 0
-5 -106 0
-5 -116 0
-5 -125 0
-5 -134 0
-5 -143 0
-5 -153 0
-5 -162 0
-5 -181 0
-15 -24 0
-15 -33 0
-15 -41 0
-15 -50 0
-15 -69 0
-15 -79 0
-15 -96 0
-15 -106 0
-15 -116 0
-15 -125 0
-15 -134 0
-15 -143 0
-15 -153 0
-15 -162 0
-15 -181 0
-24 -33 0
-24 -41 0
-24 -50 0
-24 -69 0
-24 -79 0
-24 -96 0
-24 -106 0
-24 -116 0
-24 -125 0
-24 -134 0
-24 -143 0
-24 -153 0
-24 -162 0
-24 -181 0
-33 -41 0
-33 -50 0
-33 -69 0
-33 -79 0
-33 -96 0
-33 -106 0
-33 -116 0
-33 -125 0
-33 -134 0
-33 -143 0
-33 -153 0
-33 -162 0
-33 -181 0
-41 -50 0
-41 -69 0
-41 -79 0
-41 -96 0
-41 -106 0
-41 -116 0
-41 -125 0
-41 -134 0
-41 -143 0
-41 -153 0
-41 -162 0
-41 -181 0
-50 -69 0
-50 -79 0
-50 -96 0
-50 -106 0
-50 -116 0
-50 -125 0
-50 -134 0
-50 -143 0
-50 -153 0
-50 -162 0
-50 -181 0
-69 -79 0
-69 -96 0
-69 -106 0
-69 -116 0
-69 -125 0
-69 -134 0
-69 -143 0
-69 -153 0
-69 -162 0
-69 -181 0
-79 -96 0
-79 -106 0
-79 -116 0
-79 -125 0
-79 -134 0
-79 -143 0
-79 -153 0
-79 -162 0
-79 -181 0
-96 -106 0
-96 -116 0
-96 -125 0
-96 -134 0
-96 -143 0
-96 -153 0
-96 -162 0
-96 -181 0
-106 -116 0
-106 -125 0
-106 -134 0
-106 -143 0
-106 -153 0
-106 -162 0
-106 -181 0
-116 -125 0
-116 -134 0
-116 -143 0
-116 -153 0
-116 -162 0
-116 -181 0
-125 -134 0
-125 -143 0
-125 -153 0
-125 -162 0
-125 -181 0
-134 -143 0
-134 -153 0
-134 -162 0
-134 -181 0
-143 -153 0
-143 -162 0
-143 -181 0
-153 -162 0
-153 -181 0
-162 -181 0
-6 -16 0
-6 -25 0
-6 -42 0
-6 -51 0
-6 -60 0
-6 -70 0
-6 -80 0
-6 -89 0
-6 -97 0
-6 -107 0
-6 -117 0
-6 -126 0
-6 -135 0
-6 -144 0
-6 -154 0
-6 -163 0
-6 -172 0
-6 -182 0
-16 -25 0
-16 -42 0
-16 -51 0
-16 -60 0
-16 -70 0
-16 -80 0
-16 -89 0
-16 -97 0
-16 -107 0
-16 -117 0
-16 -126 0
-16 -135 0
-16 -144 0
-16 -154 0
-16 -163 0
-16 -172 0
-16 -182 0
-25 -42 0
-25 -51 0
-25 -60 0
-25 -70 0
-25 -80 0
-25 -89 0
-25 -97 0
-25 -107 0
-25 -117 0
-25 -126 0
-25 -135 0
-25 -144 0
-25 -154 0
-25 -163 0
-25 -172 0
-25 -182 0
-42 -51 0
-42 -60 0
-42 -70 0
-42 -80 0
-42 -89 0
-42 -97 0
-42 -107 0
-42 -117 0
-42 -126 0
-42 -135 0
-42 -144 0
-42 -154 0
-42 -163 0
-42 -172 0
-42 -182 0
-51 -60 0
-51 -70 0
-51 -80 0
-51 -89 0
-51 -97 0
-51 -107 0
-51 -117 0
-51 -126 0
-51 -135 0
-51 -144 0
-51 -154 0
-51 -163 0
-51 -172 0
-51 -182 0
-60 -70 0
-60 -80 0
-60 -89 0
-60 -97 0
-60 -107 0
-60 -117 0
-60 -126 0
-60 -135 0
-60 -144 0
-60 -154 0
-60 -163 0
-60 -172 0
-60 -182 0
-70 -80 0
-70 -89 0
-70 -97 0
-70 -107 0
-70 -117 0
-70 -126 0
-70 -135 0
-70 -144 0
-70 -154 0
-70 -163 0
-70 -172 0
-70 -182 0
-80 -89 0
-80 -97 0
-80 -107 0
-80 -117 0
-80 -126 0
-80 -135 0
-80 -144 0
-80 -154 0
-80 -163 0
-80 -172 0
-80 -182 0
-89 -97 0
-89 -107 0
-89 -117 0
-89 -126 0
-89 -135 0
-89 -144 0
-89 -154 0
-89 -163 0
-89 -172 0
-89 -182 0
-97 -107 0
-97 -117 0
-97 -126 0
-97 -135 0
-97 -144 0
-97 -154 0
-97 -163 0
-97 -172 0
-97 -182 0
-107 -117 0
-107 -126 0
-107 -135 0
-107 -144 0
-107 -154 0
-107 -163 0
-107 -172 0
-107 -182 0
-117 -126 0
-117 -135 0
-117 -144 0
-117 -154 0
-117 -163 0
-117 -172 0
-117 -182 0
-126 -135 0
-126 -144 0
-126 -154 0
-126 -163 0
-126 -172 0
-126 -182 0
-135 -144 0
-135 -154 0
-135 -163 0
-135 -172 0
-135 -182 0
-144 -154 0
-144 -163 0
-144 -172 0
-144 -182 0
-154 -163 0
-154 -172 0
-154 -182 0
-163 -172 0
-163 -182 0
-172 -182 0
-7 -17 0
-7 -26 0
-7 -34 0
-7 -43 0
-7 -52 0
-7 -61 0
-7 -71 0
-7 -81 0
-7 -98 0
-7 -108 0
-7 -118 0
-7 -127 0
-7 -136 0
-7 -145 0
-7 -155 0
-7 -164 0
-7 -173 0
-7 -183 0
-17 -26 0
-17 -34 0
-17 -43 0
-17 -52 0
-17 -61 0
-17 -71 0
-17 -81 0
-17 -98 0
-17 -108 0
-17 -118 0
-17 -127 0
-17 -136 0
-17 -145 0
-17 -155 0
-17 -164 0
-17 -173 0
-17 -183 0
-26 -34 0
-26 -43 0
-26 -52 0
-26 -61 0
-26 -71 0
-26 -81 0
-26 -98 0
-26 -108 0
-26 -118 0
-26 -127 0
-26 -136 0
-26 -145 0
-26 -155 0
-26 -164 0
-26 -173 0
-26 -183 0
-34 -43 0
-34 -52 0
-34 -61 0
-34 -71 0
-34 -81 0
-34 -98 0
-34 -108 0
-34 -118 0
-34 -127 0
-34 -136 0
-34 -145 0
-34 -155 0
-34 -164 0
-34 -173 0
-34 -183 0
-43 -52 0
-43 -61 0
-43 -71 0
-43 -81 0
-43 -98 0
-43 -108 0
-43 -118 0
-43 -127 0
-43 -136 0
-43 -145 0
-43 -155 0
-43 -164 0
-43 -173 0
-43 -183 0
-52 -61 0
-52 -71 0
-52 -81 0
-52 -98 0
-52 -108 0
-52 -118 0
-52 -127 0
-52 -136 0
-52 -145 0
-52 -155 0
-52 -164 0
-52 -173 0
-52 -183 0
-61 -71 0
-61 -81 0
-61 -98 0
-61 -108 0
-61 -118 0
-61 -127 0
-61 -136 0
-61 -145 0
-61 -155 0
-61 -164 0
-61 -173 0
-61 -183 0
-71 -81 0
-71 -98 0
-71 -108 0
-71 -118 0
-71 -127 0
-71 -136 0
-71 -145 0
-71 -155 0
-71 -164 0
-71 -173 0
-71 -183 0
-81 -98 0
-81 -108 0
-81 -118 0
-81 -127 0
-81 -136 0
-81 -145 0
-81 -155 0
-81 -164 0
-81 -173 0
-81 -183 0
-98 -108 0
-98 -118 0
-98 -127 0
-98 -136 0
-98 -145 0
-98 -155 0
-98 -164 0
-98 -173 0
-98 -183 0
-108 -118 0
-108 -127 0
-108 -136 0
-108 -145 0
-108 -155 0
-108 -164 0
-108 -173 0
-108 -183 0
-118 -127 0
-118 -136 0
-118 -145 0
-118 -155 0
-118 -164 0
-118 -173 0
-118 -183 0
-127 -136 0
-127 -145 0
-127 -155 0
-127 -164 0
-127 -173 0
-127 -183 0
-136 -145 0
-136 -155 0
-136 -164 0
-136 -173 0
-136 -183 0
-145 -155 0
-145 -164 0
-145 -173 0
-145 -183 0
-155 -164 0
-155 -173 0
-155 -183 0
-164 -173 0
-164 -183 0
-173 -183 0
-8 -27 0
-8 -35 0
-8 -44 0
-8 -53 0
-8 -62 0
-8 -72 0
-8 -82 0
-8 -90 0
-8 -99 0
-8 -109 0
-8 -119 0
-8 -128 0
-8 -137 0
-8 -146 0
-8 -156 0
-8 -165 0
-8 -174 0
-8 -184 0
-27 -35 0
-27 -44 0
-27 -53 0
-27 -62 0
-27 -72 0
-27 -82 0
-27 -90 0
-27 -99 0
-27 -109 0
-27 -119 0
-27 -128 0
-27 -137 0
-27 -146 0
-27 -156 0
-27 -165 0
-27 -174 0
-27 -184 0
-35 -44 0
-35 -53 0
-35 -62 0
-35 -72 0
-35 -82 0
-35 -90 0
-35 -99 0
-35 -109 0
-35 -119 0
-35 -128 0
-35 -137 0
-35 -146 0
-35 -156 0
-35 -165 0
-35 -174 0
-35 -184 0
-44 -53 0
-44 -62 0
-44 -72 0
-44 -82 0
-44 -90 0
-44 -99 0
-44 -109 0
-44 -119 0
-44 -128 0
-44 -137 0
-44 -146 0
-44 -156 0
-44 -165 0
-44 -174 0
-44 -184 0
-53 -62 0
-53 -72 0
-53 -82 0
-53 -90 0
-53 -99 0
-53 -109 0
-53 -119 0
-53 -128 0
-53 -137 0
-53 -146 0
-53 -156 0
-53 -165 0
-53 -174 0
-53 -184 0
-62 -72 0
-62 -82 0
-62 -90 0
-62 -99 0
-62 -109 0
-62 -119 0
-62 -128 0
-62 -137 0
-62 -146 0
-62 -156 0
-62 -165 0
-62 -174 0
-62 -184 0
-72 -82 0
-72 -90 0
-72 -99 0
-72 -109 0
-72 -119 0
-72 -128 0
-72 -137 0
-72 -146 0
-72 -156 0
-72 -165 0
-72 -174 0
-72 -184 0
-82 -90 0
-82 -99 0
-82 -109 0
-82 -119 0
-82 -128 0
-82 -137 0
-82 -146 0
-82 -156 0
-82 -165 0
-82 -174 0
-82 -184 0
-90 -99 0
-90 -109 0
-90 -119 0
-90 -128 0
-90 -137 0
-90 -146 0
-90 -156 0
-90 -165 0
-90 -174 0
-90 -184 0
-99 -109 0
-99 -119 0
-99 -128 0
-99 -137 0
-99 -146 0
-99 -156 0
-99 -165 0
-99 -174 0
-99 -184 0
-109 -119 0
-109 -128 0
-109 -137 0
-109 -146 0
-109 -156 0
-109 -165 0
-109 -174 0
-109 -184 0
-119 -128 0
-119 -137 0
-119 -146 0
-119 -156 0
-119 -165 0
-119 -174 0
-119 -184 0
-128 -137 0
-128 -146 0
-128 -156 0
-128 -165 0
-128 -174 0
-128 -184 0
-137 -146 0
-137 -156 0
-137 -165 0
-137 -174 0
-137 -184 0
-146 -156 0
-146 -165 0
-146 -174 0
-146 -184 0
-156 -165 0
-156 -174 0
-156 -184 0
-165 -174 0
-165 -184 0
-174 -184 0
-9 -18 0
-9 -28 0
-9 -36 0
-9 -45 0
-9 -54 0
-9 -63 0
-9 -73 0
-9 -83 0
-9 -100 0
-9 -110 0
-9 -120 0
-9 -129 0
-9 -138 0
-9 -147 0
-9 -166 0
-9 -175 0
-9 -185 0
-18 -28 0
-18 -36 0
-18 -45 0
-18 -54 0
-18 -63 0
-18 -73 0
-18 -83 0
-18 -100 0
-18 -110 0
-18 -120 0
-18 -129 0
-18 -138 0
-18 -147 0
-18 -166 0
-18 -175 0
-18 -185 0
-28 -36 0
-28 -45 0
-28 -54 0
-28 -63 0
-28 -73 0
-28 -83 0
-28 -100 0
-28 -110 0
-28 -120 0
-28 -129 0
-28 -138 0
-28 -147 0
-28 -166 0
-28 -175 0
-28 -185 0
-36 -45 0
-36 -54 0
-36 -63 0
-36 -73 0
-36 -83 0
-36 -100 0
-36 -110 0
-36 -120 0
-36 -129 0
-36 -138 0
-36 -147 0
-36 -166 0
-36 -175 0
-36 -185 0
-45 -54 0
-45 -63 0
-45 -73 0
-45 -83 0
-45 -100 0
-45 -110 0
-45 -120 0
-45 -129 0
-45 -138 0
-45 -147 0
-45 -166 0
-45 -175 0
-45 -185 0
-54 -63 0
-54 -73 0
-54 -83 0
-54 -100 0
-54 -110 0
-54 -120 0
-54 -129 0
-54 -138 0
-54 -147 0
-54 -166 0
-54 -175 0
-54 -185 0
-63 -73 0
-63 -83 0
-63 -100 0
-63 -110 0
-63 -120 0
-63 -129 0
-63 -138 0
-63 -147 0
-63 -166 0
-63 -175 0
-63 -185 0
-73 -83 0
-73 -100 0
-73 -110 0
-73 -120 0
-73 -129 0
-73 -138 0
-73 -147 0
-73 -166 0
-73 -175 0
-73 -185 0
-83 -100 0
-83 -110 0
-83 -120 0
-83 -129 0
-83 -138 0
-83 -147 0
-83 -166 0
-83 -175 0
-83 -185 0
-100 -110 0
-100 -120 0
-100 -129 0
-100 -138 0
-100 -147 0
-100 -166 0
-100 -175 0
-100 -185 0
-110 -120 0
-110 -129 0
-110 -138 0
-110 -147 0
-110 -166 0
-110 -175 0
-110 -185 0
-120 -129 0
-120 -138 0
-120 -147 0
-120 -166 0
-120 -175 0
-120 -185 0
-129 -138 0
-129 -147 0
-129 -166 0
-129 -175 0
-129 -185 0
-138 -147 0
-138 -166 0
-138 -175 0
-138 -185 0
-147 -166 0
-147 -175 0
-147 -185 0
-166 -175 0
-166 -185 0
-175 -185 0
-10 -19 0
-10 -55 0
-10 -64 0
-10 -74 0
-10 -84 0
-10 -91 0
-10 -101 0
-10 -111 0
-10 -121 0
-10 -130 0
-10 -139 0
-10 -148 0
-10 -157 0
-10 -167 0
-10 -176 0
-19 -55 0
-19 -64 0
-19 -74 0
-19 -84 0
-19 -91 0
-19 -101 0
-19 -111 0
-19 -121 0
-19 -130 0
-19 -139 0
-19 -148 0
-19 -157 0
-19 -167 0
-19 -176 0
-55 -64 0
-55 -74 0
-55 -84 0
-55 -91 0
-55 -101 0
-55 -111 0
-55 -121 0
-55 -130 0
-55 -139 0
-55 -148 0
-55 -157 0
-55 -167 0
-55 -176 0
-64 -74 0
-64 -84 0
-64 -91 0
-64 -101 0
-64 -111 0
-64 -121 0
-64 -130 0
-64 -139 0
-64 -148 0
-64 -157 0
-64 -167 0
-64 -176 0
-74 -84 0
-74 -91 0
-74 -101 0
-74 -111 0
-74 -121 0
-74 -130 0
-74 -139 0
-74 -148 0
-74 -157 0
-74 -167 0
-74 -176 0
-84 -91 0
-84 -101 0
-84 -111 0
-84 -121 0
-84 -130 0
-84 -139 0
-84 -148 0
-84 -157 0
-84 -167 0
-84 -176 0
-91 -101 0
-91 -111 0
-91 -121 0
-91 -130 0
-91 -139 0
-91 -148 0
-91 -157 0
-91 -167 0
-91 -176 0
-101 -111 0
-101 -121 0
-101 -130 0
-101 -139 0
-101 -148 0
-101 -157 0
-101 -167 0
-101 -176 0
-111 -121 0
-111 -130 0
-111 -139 0
-111 -148 0
-111 -157 0
-111 -167 0
-111 -176 0
-121 -130 0
-121 -139 0
-121 -148 0
-121 -157 0
-121 -167 0
-121 -176 0
-130 -139 0
-130 -148 0
-130 -157 0
-130 -167 0
-130 -176 0
-139 -148 0
-139 -157 0
-139 -167 0
-139 -176 0
-148 -157 0
-148 -167 0
-148 -176 0
-157 -167 0
-157 -176 0
-167 -176 0